param sigma
: 1 2 :=
1	1e-05	0.99999
2	0.1	0.9
3	0.2	0.8
4	0.3	0.7
5	0.4	0.6
6	0.5	0.5
7	0.6	0.4
8	0.7	0.3
9	0.8	0.2
10	0.9	0.1
11	0.99999	1e-05
;

set O := 1 38;
set R := 2 3 4 5 6 7 8 9 10 11 12 13 14 15 16 17 18 19 20 21 22 23 24 25 26 27 28 29 30 31 32 33 34 35 36 37;
set S := 1 38;
set K := 1 2 3 4 5 6 7 8;
param b := 26;
param theta := 375.0;
param peso_vacio := 3500;
param alpha :=
0 0
1 0
2 0
3 0
4 0
;
param beta :=
0 0.2
1 -0.1
2 0
3 0
4 0
;
param gamma :=
0 16.4
1 2.2
2 2.2
3 0.6
4 0.4
;
param delta :=
0 0
1 0
2 0
3 0
4 0
;
param epsilon :=
0 0.3
1 0
2 0
3 0
4 0
;
param zeta :=
0 2.4
1 2.5
2 1.3
3 4.5
4 3.3
;
param hta :=
0 1
1 1
2 1
3 1
4 1
;
param dm :=
1 0
2 9
3 8
4 7
5 6
6 5
7 4
8 3
9 2
10 1
11 9
12 8
13 7
14 6
15 5
16 4
17 3
18 2
19 1
20 9
21 8
22 7
23 6
24 5
25 4
26 3
27 2
28 1
29 9
30 8
31 7
32 6
33 5
34 4
35 3
36 2
37 1
38 0
;
param d :=
1 1 0.00
1 2 3.54
1 3 2.42
1 4 1.48
1 5 1.00
1 6 1.48
1 7 2.42
1 8 3.54
1 9 5.00
1 10 6.40
1 11 6.82
1 12 6.94
1 13 6.99
1 14 7.00
1 15 6.99
1 16 6.94
1 17 6.82
1 18 6.40
1 19 6.40
1 20 7.90
1 21 8.95
1 22 9.84
1 23 10.63
1 24 11.35
1 25 12.01
1 26 12.59
1 27 13.00
1 28 13.60
1 29 5.34
1 30 6.15
1 31 7.08
1 32 8.06
1 33 9.07
1 34 10.09
1 35 11.16
1 36 12.37
1 37 13.60
1 38 11.31
2 1 3.54
2 2 0.00
2 3 1.13
2 4 2.15
2 5 3.13
2 6 4.08
2 7 5.03
2 8 6.00
2 9 7.09
2 10 8.28
2 11 3.32
2 12 3.65
2 13 4.01
2 14 4.42
2 15 4.86
2 16 5.32
2 17 5.79
2 18 6.21
2 19 6.95
2 20 4.69
2 21 5.63
2 22 6.43
2 23 7.16
2 24 7.83
2 25 8.47
2 26 9.06
2 27 9.53
2 28 10.22
2 29 3.32
2 30 4.44
2 31 5.47
2 32 6.44
2 33 7.37
2 34 8.29
2 35 9.19
2 36 10.12
2 37 11.17
2 38 7.90
3 1 2.42
3 2 1.13
3 3 0.00
3 4 1.04
3 5 2.03
3 6 3.01
3 7 4.00
3 8 5.03
3 9 6.22
3 10 7.48
3 11 4.44
3 12 4.69
3 13 4.93
3 14 5.18
3 15 5.45
3 16 5.73
3 17 5.99
3 18 6.14
3 19 6.66
3 20 5.63
3 21 6.63
3 22 7.48
3 23 8.24
3 24 8.94
3 25 9.59
3 26 10.18
3 27 10.64
3 28 11.31
3 29 3.65
3 30 4.69
3 31 5.72
3 32 6.72
3 33 7.70
3 34 8.67
3 35 9.65
3 36 10.69
3 37 11.82
3 38 8.95
4 1 1.48
4 2 2.15
4 3 1.04
4 4 0.00
4 5 1.00
4 6 2.00
4 7 3.01
4 8 4.08
4 9 5.35
4 10 6.67
4 11 5.47
4 12 5.72
4 13 5.92
4 14 6.10
4 15 6.27
4 16 6.43
4 17 6.55
4 18 6.47
4 19 6.78
4 20 6.43
4 21 7.48
4 22 8.37
4 23 9.16
4 24 9.90
4 25 10.58
4 26 11.20
4 27 11.68
4 28 12.35
4 29 4.01
4 30 4.93
4 31 5.92
4 32 6.92
4 33 7.92
4 34 8.92
4 35 9.95
4 36 11.10
4 37 12.29
4 38 9.84
5 1 1.00
5 2 3.13
5 3 2.03
5 4 1.00
5 5 0.00
5 6 1.00
5 7 2.03
5 8 3.13
5 9 4.47
5 10 5.83
5 11 6.44
5 12 6.72
5 13 6.92
5 14 7.07
5 15 7.20
5 16 7.29
5 17 7.31
5 18 7.07
5 19 7.21
5 20 7.16
5 21 8.24
5 22 9.16
5 23 10.00
5 24 10.77
5 25 11.48
5 26 12.13
5 27 12.65
5 28 13.34
5 29 4.42
5 30 5.18
5 31 6.10
5 32 7.07
5 33 8.07
5 34 9.10
5 35 10.18
5 36 11.40
5 37 12.65
5 38 10.63
6 1 1.48
6 2 4.08
6 3 3.01
6 4 2.00
6 5 1.00
6 6 0.00
6 7 1.04
6 8 2.15
6 9 3.56
6 10 4.95
6 11 7.37
6 12 7.70
6 13 7.92
6 14 8.07
6 15 8.19
6 16 8.24
6 17 8.21
6 18 7.86
6 19 7.88
6 20 7.83
6 21 8.94
6 22 9.90
6 23 10.77
6 24 11.58
6 25 12.33
6 26 13.01
6 27 13.58
6 28 14.30
6 29 4.86
6 30 5.45
6 31 6.27
6 32 7.20
6 33 8.19
6 34 9.22
6 35 10.32
6 36 11.62
6 37 12.92
6 38 11.35
7 1 2.42
7 2 5.03
7 3 4.00
7 4 3.01
7 5 2.03
7 6 1.04
7 7 0.00
7 8 1.13
7 9 2.59
7 10 4.00
7 11 8.29
7 12 8.67
7 13 8.92
7 14 9.10
7 15 9.22
7 16 9.27
7 17 9.21
7 18 8.81
7 19 8.74
7 20 8.47
7 21 9.59
7 22 10.58
7 23 11.48
7 24 12.33
7 25 13.12
7 26 13.85
7 27 14.47
7 28 15.23
7 29 5.32
7 30 5.73
7 31 6.43
7 32 7.29
7 33 8.24
7 34 9.27
7 35 10.40
7 36 11.76
7 37 13.10
7 38 12.01
8 1 3.54
8 2 6.00
8 3 5.03
8 4 4.08
8 5 3.13
8 6 2.15
8 7 1.13
8 8 0.00
8 9 1.50
8 10 2.92
8 11 9.19
8 12 9.65
8 13 9.95
8 14 10.18
8 15 10.32
8 16 10.40
8 17 10.34
8 18 9.93
8 19 9.81
8 20 9.06
8 21 10.18
8 22 11.20
8 23 12.13
8 24 13.01
8 25 13.85
8 26 14.63
8 27 15.32
8 28 16.14
8 29 5.79
8 30 5.99
8 31 6.55
8 32 7.31
8 33 8.21
8 34 9.21
8 35 10.34
8 36 11.77
8 37 13.14
8 38 12.59
9 1 5.00
9 2 7.09
9 3 6.22
9 4 5.35
9 5 4.47
9 6 3.56
9 7 2.59
9 8 1.50
9 9 0.00
9 10 1.41
9 11 10.12
9 12 10.69
9 13 11.10
9 14 11.40
9 15 11.62
9 16 11.76
9 17 11.77
9 18 11.40
9 19 11.31
9 20 9.53
9 21 10.64
9 22 11.68
9 23 12.65
9 24 13.58
9 25 14.47
9 26 15.32
9 27 16.12
9 28 17.03
9 29 6.21
9 30 6.14
9 31 6.47
9 32 7.07
9 33 7.86
9 34 8.81
9 35 9.93
9 36 11.40
9 37 12.81
9 38 13.00
10 1 6.40
10 2 8.28
10 3 7.48
10 4 6.67
10 5 5.83
10 6 4.95
10 7 4.00
10 8 2.92
10 9 1.41
10 10 0.00
10 11 11.17
10 12 11.82
10 13 12.29
10 14 12.65
10 15 12.92
10 16 13.10
10 17 13.14
10 18 12.81
10 19 12.73
10 20 10.22
10 21 11.31
10 22 12.35
10 23 13.34
10 24 14.30
10 25 15.23
10 26 16.14
10 27 17.03
10 28 18.00
10 29 6.95
10 30 6.66
10 31 6.78
10 32 7.21
10 33 7.88
10 34 8.74
10 35 9.81
10 36 11.31
10 37 12.73
10 38 13.60
11 1 6.82
11 2 3.32
11 3 4.44
11 4 5.47
11 5 6.44
11 6 7.37
11 7 8.29
11 8 9.19
11 9 10.12
11 10 11.17
11 11 0.00
11 12 1.13
11 13 2.15
11 14 3.13
11 15 4.08
11 16 5.03
11 17 6.00
11 18 7.09
11 19 8.28
11 20 3.32
11 21 3.65
11 22 4.01
11 23 4.42
11 24 4.86
11 25 5.32
11 26 5.79
11 27 6.21
11 28 6.95
11 29 4.69
11 30 5.63
11 31 6.43
11 32 7.16
11 33 7.83
11 34 8.47
11 35 9.06
11 36 9.53
11 37 10.22
11 38 5.34
12 1 6.94
12 2 3.65
12 3 4.69
12 4 5.72
12 5 6.72
12 6 7.70
12 7 8.67
12 8 9.65
12 9 10.69
12 10 11.82
12 11 1.13
12 12 0.00
12 13 1.04
12 14 2.03
12 15 3.01
12 16 4.00
12 17 5.03
12 18 6.22
12 19 7.48
12 20 4.44
12 21 4.69
12 22 4.93
12 23 5.18
12 24 5.45
12 25 5.73
12 26 5.99
12 27 6.14
12 28 6.66
12 29 5.63
12 30 6.63
12 31 7.48
12 32 8.24
12 33 8.94
12 34 9.59
12 35 10.18
12 36 10.64
12 37 11.31
12 38 6.15
13 1 6.99
13 2 4.01
13 3 4.93
13 4 5.92
13 5 6.92
13 6 7.92
13 7 8.92
13 8 9.95
13 9 11.10
13 10 12.29
13 11 2.15
13 12 1.04
13 13 0.00
13 14 1.00
13 15 2.00
13 16 3.01
13 17 4.08
13 18 5.35
13 19 6.67
13 20 5.47
13 21 5.72
13 22 5.92
13 23 6.10
13 24 6.27
13 25 6.43
13 26 6.55
13 27 6.47
13 28 6.78
13 29 6.43
13 30 7.48
13 31 8.37
13 32 9.16
13 33 9.90
13 34 10.58
13 35 11.20
13 36 11.68
13 37 12.35
13 38 7.08
14 1 7.00
14 2 4.42
14 3 5.18
14 4 6.10
14 5 7.07
14 6 8.07
14 7 9.10
14 8 10.18
14 9 11.40
14 10 12.65
14 11 3.13
14 12 2.03
14 13 1.00
14 14 0.00
14 15 1.00
14 16 2.03
14 17 3.13
14 18 4.47
14 19 5.83
14 20 6.44
14 21 6.72
14 22 6.92
14 23 7.07
14 24 7.20
14 25 7.29
14 26 7.31
14 27 7.07
14 28 7.21
14 29 7.16
14 30 8.24
14 31 9.16
14 32 10.00
14 33 10.77
14 34 11.48
14 35 12.13
14 36 12.65
14 37 13.34
14 38 8.06
15 1 6.99
15 2 4.86
15 3 5.45
15 4 6.27
15 5 7.20
15 6 8.19
15 7 9.22
15 8 10.32
15 9 11.62
15 10 12.92
15 11 4.08
15 12 3.01
15 13 2.00
15 14 1.00
15 15 0.00
15 16 1.04
15 17 2.15
15 18 3.56
15 19 4.95
15 20 7.37
15 21 7.70
15 22 7.92
15 23 8.07
15 24 8.19
15 25 8.24
15 26 8.21
15 27 7.86
15 28 7.88
15 29 7.83
15 30 8.94
15 31 9.90
15 32 10.77
15 33 11.58
15 34 12.33
15 35 13.01
15 36 13.58
15 37 14.30
15 38 9.07
16 1 6.94
16 2 5.32
16 3 5.73
16 4 6.43
16 5 7.29
16 6 8.24
16 7 9.27
16 8 10.40
16 9 11.76
16 10 13.10
16 11 5.03
16 12 4.00
16 13 3.01
16 14 2.03
16 15 1.04
16 16 0.00
16 17 1.13
16 18 2.59
16 19 4.00
16 20 8.29
16 21 8.67
16 22 8.92
16 23 9.10
16 24 9.22
16 25 9.27
16 26 9.21
16 27 8.81
16 28 8.74
16 29 8.47
16 30 9.59
16 31 10.58
16 32 11.48
16 33 12.33
16 34 13.12
16 35 13.85
16 36 14.47
16 37 15.23
16 38 10.09
17 1 6.82
17 2 5.79
17 3 5.99
17 4 6.55
17 5 7.31
17 6 8.21
17 7 9.21
17 8 10.34
17 9 11.77
17 10 13.14
17 11 6.00
17 12 5.03
17 13 4.08
17 14 3.13
17 15 2.15
17 16 1.13
17 17 0.00
17 18 1.50
17 19 2.92
17 20 9.19
17 21 9.65
17 22 9.95
17 23 10.18
17 24 10.32
17 25 10.40
17 26 10.34
17 27 9.93
17 28 9.81
17 29 9.06
17 30 10.18
17 31 11.20
17 32 12.13
17 33 13.01
17 34 13.85
17 35 14.63
17 36 15.32
17 37 16.14
17 38 11.16
18 1 6.40
18 2 6.21
18 3 6.14
18 4 6.47
18 5 7.07
18 6 7.86
18 7 8.81
18 8 9.93
18 9 11.40
18 10 12.81
18 11 7.09
18 12 6.22
18 13 5.35
18 14 4.47
18 15 3.56
18 16 2.59
18 17 1.50
18 18 0.00
18 19 1.41
18 20 10.12
18 21 10.69
18 22 11.10
18 23 11.40
18 24 11.62
18 25 11.76
18 26 11.77
18 27 11.40
18 28 11.31
18 29 9.53
18 30 10.64
18 31 11.68
18 32 12.65
18 33 13.58
18 34 14.47
18 35 15.32
18 36 16.12
18 37 17.03
18 38 12.37
19 1 6.40
19 2 6.95
19 3 6.66
19 4 6.78
19 5 7.21
19 6 7.88
19 7 8.74
19 8 9.81
19 9 11.31
19 10 12.73
19 11 8.28
19 12 7.48
19 13 6.67
19 14 5.83
19 15 4.95
19 16 4.00
19 17 2.92
19 18 1.41
19 19 0.00
19 20 11.17
19 21 11.82
19 22 12.29
19 23 12.65
19 24 12.92
19 25 13.10
19 26 13.14
19 27 12.81
19 28 12.73
19 29 10.22
19 30 11.31
19 31 12.35
19 32 13.34
19 33 14.30
19 34 15.23
19 35 16.14
19 36 17.03
19 37 18.00
19 38 13.60
20 1 7.90
20 2 4.69
20 3 5.63
20 4 6.43
20 5 7.16
20 6 7.83
20 7 8.47
20 8 9.06
20 9 9.53
20 10 10.22
20 11 3.32
20 12 4.44
20 13 5.47
20 14 6.44
20 15 7.37
20 16 8.29
20 17 9.19
20 18 10.12
20 19 11.17
20 20 0.00
20 21 1.13
20 22 2.15
20 23 3.13
20 24 4.08
20 25 5.03
20 26 6.00
20 27 7.09
20 28 8.28
20 29 3.32
20 30 3.65
20 31 4.01
20 32 4.42
20 33 4.86
20 34 5.32
20 35 5.79
20 36 6.21
20 37 6.95
20 38 3.54
21 1 8.95
21 2 5.63
21 3 6.63
21 4 7.48
21 5 8.24
21 6 8.94
21 7 9.59
21 8 10.18
21 9 10.64
21 10 11.31
21 11 3.65
21 12 4.69
21 13 5.72
21 14 6.72
21 15 7.70
21 16 8.67
21 17 9.65
21 18 10.69
21 19 11.82
21 20 1.13
21 21 0.00
21 22 1.04
21 23 2.03
21 24 3.01
21 25 4.00
21 26 5.03
21 27 6.22
21 28 7.48
21 29 4.44
21 30 4.69
21 31 4.93
21 32 5.18
21 33 5.45
21 34 5.73
21 35 5.99
21 36 6.14
21 37 6.66
21 38 2.42
22 1 9.84
22 2 6.43
22 3 7.48
22 4 8.37
22 5 9.16
22 6 9.90
22 7 10.58
22 8 11.20
22 9 11.68
22 10 12.35
22 11 4.01
22 12 4.93
22 13 5.92
22 14 6.92
22 15 7.92
22 16 8.92
22 17 9.95
22 18 11.10
22 19 12.29
22 20 2.15
22 21 1.04
22 22 0.00
22 23 1.00
22 24 2.00
22 25 3.01
22 26 4.08
22 27 5.35
22 28 6.67
22 29 5.47
22 30 5.72
22 31 5.92
22 32 6.10
22 33 6.27
22 34 6.43
22 35 6.55
22 36 6.47
22 37 6.78
22 38 1.48
23 1 10.63
23 2 7.16
23 3 8.24
23 4 9.16
23 5 10.00
23 6 10.77
23 7 11.48
23 8 12.13
23 9 12.65
23 10 13.34
23 11 4.42
23 12 5.18
23 13 6.10
23 14 7.07
23 15 8.07
23 16 9.10
23 17 10.18
23 18 11.40
23 19 12.65
23 20 3.13
23 21 2.03
23 22 1.00
23 23 0.00
23 24 1.00
23 25 2.03
23 26 3.13
23 27 4.47
23 28 5.83
23 29 6.44
23 30 6.72
23 31 6.92
23 32 7.07
23 33 7.20
23 34 7.29
23 35 7.31
23 36 7.07
23 37 7.21
23 38 1.00
24 1 11.35
24 2 7.83
24 3 8.94
24 4 9.90
24 5 10.77
24 6 11.58
24 7 12.33
24 8 13.01
24 9 13.58
24 10 14.30
24 11 4.86
24 12 5.45
24 13 6.27
24 14 7.20
24 15 8.19
24 16 9.22
24 17 10.32
24 18 11.62
24 19 12.92
24 20 4.08
24 21 3.01
24 22 2.00
24 23 1.00
24 24 0.00
24 25 1.04
24 26 2.15
24 27 3.56
24 28 4.95
24 29 7.37
24 30 7.70
24 31 7.92
24 32 8.07
24 33 8.19
24 34 8.24
24 35 8.21
24 36 7.86
24 37 7.88
24 38 1.48
25 1 12.01
25 2 8.47
25 3 9.59
25 4 10.58
25 5 11.48
25 6 12.33
25 7 13.12
25 8 13.85
25 9 14.47
25 10 15.23
25 11 5.32
25 12 5.73
25 13 6.43
25 14 7.29
25 15 8.24
25 16 9.27
25 17 10.40
25 18 11.76
25 19 13.10
25 20 5.03
25 21 4.00
25 22 3.01
25 23 2.03
25 24 1.04
25 25 0.00
25 26 1.13
25 27 2.59
25 28 4.00
25 29 8.29
25 30 8.67
25 31 8.92
25 32 9.10
25 33 9.22
25 34 9.27
25 35 9.21
25 36 8.81
25 37 8.74
25 38 2.42
26 1 12.59
26 2 9.06
26 3 10.18
26 4 11.20
26 5 12.13
26 6 13.01
26 7 13.85
26 8 14.63
26 9 15.32
26 10 16.14
26 11 5.79
26 12 5.99
26 13 6.55
26 14 7.31
26 15 8.21
26 16 9.21
26 17 10.34
26 18 11.77
26 19 13.14
26 20 6.00
26 21 5.03
26 22 4.08
26 23 3.13
26 24 2.15
26 25 1.13
26 26 0.00
26 27 1.50
26 28 2.92
26 29 9.19
26 30 9.65
26 31 9.95
26 32 10.18
26 33 10.32
26 34 10.40
26 35 10.34
26 36 9.93
26 37 9.81
26 38 3.54
27 1 13.00
27 2 9.53
27 3 10.64
27 4 11.68
27 5 12.65
27 6 13.58
27 7 14.47
27 8 15.32
27 9 16.12
27 10 17.03
27 11 6.21
27 12 6.14
27 13 6.47
27 14 7.07
27 15 7.86
27 16 8.81
27 17 9.93
27 18 11.40
27 19 12.81
27 20 7.09
27 21 6.22
27 22 5.35
27 23 4.47
27 24 3.56
27 25 2.59
27 26 1.50
27 27 0.00
27 28 1.41
27 29 10.12
27 30 10.69
27 31 11.10
27 32 11.40
27 33 11.62
27 34 11.76
27 35 11.77
27 36 11.40
27 37 11.31
27 38 5.00
28 1 13.60
28 2 10.22
28 3 11.31
28 4 12.35
28 5 13.34
28 6 14.30
28 7 15.23
28 8 16.14
28 9 17.03
28 10 18.00
28 11 6.95
28 12 6.66
28 13 6.78
28 14 7.21
28 15 7.88
28 16 8.74
28 17 9.81
28 18 11.31
28 19 12.73
28 20 8.28
28 21 7.48
28 22 6.67
28 23 5.83
28 24 4.95
28 25 4.00
28 26 2.92
28 27 1.41
28 28 0.00
28 29 11.17
28 30 11.82
28 31 12.29
28 32 12.65
28 33 12.92
28 34 13.10
28 35 13.14
28 36 12.81
28 37 12.73
28 38 6.40
29 1 5.34
29 2 3.32
29 3 3.65
29 4 4.01
29 5 4.42
29 6 4.86
29 7 5.32
29 8 5.79
29 9 6.21
29 10 6.95
29 11 4.69
29 12 5.63
29 13 6.43
29 14 7.16
29 15 7.83
29 16 8.47
29 17 9.06
29 18 9.53
29 19 10.22
29 20 3.32
29 21 4.44
29 22 5.47
29 23 6.44
29 24 7.37
29 25 8.29
29 26 9.19
29 27 10.12
29 28 11.17
29 29 0.00
29 30 1.13
29 31 2.15
29 32 3.13
29 33 4.08
29 34 5.03
29 35 6.00
29 36 7.09
29 37 8.28
29 38 6.82
30 1 6.15
30 2 4.44
30 3 4.69
30 4 4.93
30 5 5.18
30 6 5.45
30 7 5.73
30 8 5.99
30 9 6.14
30 10 6.66
30 11 5.63
30 12 6.63
30 13 7.48
30 14 8.24
30 15 8.94
30 16 9.59
30 17 10.18
30 18 10.64
30 19 11.31
30 20 3.65
30 21 4.69
30 22 5.72
30 23 6.72
30 24 7.70
30 25 8.67
30 26 9.65
30 27 10.69
30 28 11.82
30 29 1.13
30 30 0.00
30 31 1.04
30 32 2.03
30 33 3.01
30 34 4.00
30 35 5.03
30 36 6.22
30 37 7.48
30 38 6.94
31 1 7.08
31 2 5.47
31 3 5.72
31 4 5.92
31 5 6.10
31 6 6.27
31 7 6.43
31 8 6.55
31 9 6.47
31 10 6.78
31 11 6.43
31 12 7.48
31 13 8.37
31 14 9.16
31 15 9.90
31 16 10.58
31 17 11.20
31 18 11.68
31 19 12.35
31 20 4.01
31 21 4.93
31 22 5.92
31 23 6.92
31 24 7.92
31 25 8.92
31 26 9.95
31 27 11.10
31 28 12.29
31 29 2.15
31 30 1.04
31 31 0.00
31 32 1.00
31 33 2.00
31 34 3.01
31 35 4.08
31 36 5.35
31 37 6.67
31 38 6.99
32 1 8.06
32 2 6.44
32 3 6.72
32 4 6.92
32 5 7.07
32 6 7.20
32 7 7.29
32 8 7.31
32 9 7.07
32 10 7.21
32 11 7.16
32 12 8.24
32 13 9.16
32 14 10.00
32 15 10.77
32 16 11.48
32 17 12.13
32 18 12.65
32 19 13.34
32 20 4.42
32 21 5.18
32 22 6.10
32 23 7.07
32 24 8.07
32 25 9.10
32 26 10.18
32 27 11.40
32 28 12.65
32 29 3.13
32 30 2.03
32 31 1.00
32 32 0.00
32 33 1.00
32 34 2.03
32 35 3.13
32 36 4.47
32 37 5.83
32 38 7.00
33 1 9.07
33 2 7.37
33 3 7.70
33 4 7.92
33 5 8.07
33 6 8.19
33 7 8.24
33 8 8.21
33 9 7.86
33 10 7.88
33 11 7.83
33 12 8.94
33 13 9.90
33 14 10.77
33 15 11.58
33 16 12.33
33 17 13.01
33 18 13.58
33 19 14.30
33 20 4.86
33 21 5.45
33 22 6.27
33 23 7.20
33 24 8.19
33 25 9.22
33 26 10.32
33 27 11.62
33 28 12.92
33 29 4.08
33 30 3.01
33 31 2.00
33 32 1.00
33 33 0.00
33 34 1.04
33 35 2.15
33 36 3.56
33 37 4.95
33 38 6.99
34 1 10.09
34 2 8.29
34 3 8.67
34 4 8.92
34 5 9.10
34 6 9.22
34 7 9.27
34 8 9.21
34 9 8.81
34 10 8.74
34 11 8.47
34 12 9.59
34 13 10.58
34 14 11.48
34 15 12.33
34 16 13.12
34 17 13.85
34 18 14.47
34 19 15.23
34 20 5.32
34 21 5.73
34 22 6.43
34 23 7.29
34 24 8.24
34 25 9.27
34 26 10.40
34 27 11.76
34 28 13.10
34 29 5.03
34 30 4.00
34 31 3.01
34 32 2.03
34 33 1.04
34 34 0.00
34 35 1.13
34 36 2.59
34 37 4.00
34 38 6.94
35 1 11.16
35 2 9.19
35 3 9.65
35 4 9.95
35 5 10.18
35 6 10.32
35 7 10.40
35 8 10.34
35 9 9.93
35 10 9.81
35 11 9.06
35 12 10.18
35 13 11.20
35 14 12.13
35 15 13.01
35 16 13.85
35 17 14.63
35 18 15.32
35 19 16.14
35 20 5.79
35 21 5.99
35 22 6.55
35 23 7.31
35 24 8.21
35 25 9.21
35 26 10.34
35 27 11.77
35 28 13.14
35 29 6.00
35 30 5.03
35 31 4.08
35 32 3.13
35 33 2.15
35 34 1.13
35 35 0.00
35 36 1.50
35 37 2.92
35 38 6.82
36 1 12.37
36 2 10.12
36 3 10.69
36 4 11.10
36 5 11.40
36 6 11.62
36 7 11.76
36 8 11.77
36 9 11.40
36 10 11.31
36 11 9.53
36 12 10.64
36 13 11.68
36 14 12.65
36 15 13.58
36 16 14.47
36 17 15.32
36 18 16.12
36 19 17.03
36 20 6.21
36 21 6.14
36 22 6.47
36 23 7.07
36 24 7.86
36 25 8.81
36 26 9.93
36 27 11.40
36 28 12.81
36 29 7.09
36 30 6.22
36 31 5.35
36 32 4.47
36 33 3.56
36 34 2.59
36 35 1.50
36 36 0.00
36 37 1.41
36 38 6.40
37 1 13.60
37 2 11.17
37 3 11.82
37 4 12.29
37 5 12.65
37 6 12.92
37 7 13.10
37 8 13.14
37 9 12.81
37 10 12.73
37 11 10.22
37 12 11.31
37 13 12.35
37 14 13.34
37 15 14.30
37 16 15.23
37 17 16.14
37 18 17.03
37 19 18.00
37 20 6.95
37 21 6.66
37 22 6.78
37 23 7.21
37 24 7.88
37 25 8.74
37 26 9.81
37 27 11.31
37 28 12.73
37 29 8.28
37 30 7.48
37 31 6.67
37 32 5.83
37 33 4.95
37 34 4.00
37 35 2.92
37 36 1.41
37 37 0.00
37 38 6.40
38 1 11.31
38 2 7.90
38 3 8.95
38 4 9.84
38 5 10.63
38 6 11.35
38 7 12.01
38 8 12.59
38 9 13.00
38 10 13.60
38 11 5.34
38 12 6.15
38 13 7.08
38 14 8.06
38 15 9.07
38 16 10.09
38 17 11.16
38 18 12.37
38 19 13.60
38 20 3.54
38 21 2.42
38 22 1.48
38 23 1.00
38 24 1.48
38 25 2.42
38 26 3.54
38 27 5.00
38 28 6.40
38 29 6.82
38 30 6.94
38 31 6.99
38 32 7.00
38 33 6.99
38 34 6.94
38 35 6.82
38 36 6.40
38 37 6.40
38 38 0.00
;
param v :=
1 1 0
1 2 38
1 3 45
1 4 52
1 5 55
1 6 43
1 7 46
1 8 49
1 9 55
1 10 56
1 11 37
1 12 46
1 13 52
1 14 57
1 15 36
1 16 48
1 17 46
1 18 49
1 19 40
1 20 38
1 21 58
1 22 43
1 23 43
1 24 35
1 25 55
1 26 51
1 27 39
1 28 57
1 29 42
1 30 60
1 31 60
1 32 57
1 33 53
1 34 54
1 35 41
1 36 42
1 37 38
1 38 45
2 1 49
2 2 0
2 3 51
2 4 57
2 5 40
2 6 58
2 7 59
2 8 53
2 9 49
2 10 47
2 11 58
2 12 35
2 13 49
2 14 35
2 15 55
2 16 43
2 17 37
2 18 45
2 19 52
2 20 36
2 21 50
2 22 37
2 23 52
2 24 42
2 25 59
2 26 35
2 27 45
2 28 53
2 29 51
2 30 54
2 31 38
2 32 41
2 33 52
2 34 55
2 35 36
2 36 60
2 37 57
2 38 35
3 1 52
3 2 59
3 3 0
3 4 46
3 5 40
3 6 48
3 7 44
3 8 45
3 9 60
3 10 51
3 11 45
3 12 53
3 13 44
3 14 53
3 15 45
3 16 35
3 17 42
3 18 50
3 19 46
3 20 40
3 21 54
3 22 37
3 23 51
3 24 59
3 25 35
3 26 35
3 27 55
3 28 51
3 29 48
3 30 50
3 31 42
3 32 58
3 33 39
3 34 52
3 35 51
3 36 36
3 37 46
3 38 38
4 1 60
4 2 46
4 3 56
4 4 0
4 5 48
4 6 38
4 7 56
4 8 46
4 9 38
4 10 46
4 11 45
4 12 51
4 13 53
4 14 37
4 15 39
4 16 40
4 17 57
4 18 42
4 19 39
4 20 47
4 21 50
4 22 59
4 23 48
4 24 38
4 25 40
4 26 53
4 27 55
4 28 41
4 29 45
4 30 38
4 31 54
4 32 39
4 33 54
4 34 38
4 35 55
4 36 43
4 37 51
4 38 52
5 1 38
5 2 45
5 3 46
5 4 48
5 5 0
5 6 44
5 7 46
5 8 43
5 9 46
5 10 60
5 11 54
5 12 59
5 13 43
5 14 40
5 15 57
5 16 48
5 17 44
5 18 55
5 19 36
5 20 38
5 21 36
5 22 52
5 23 47
5 24 41
5 25 60
5 26 49
5 27 38
5 28 38
5 29 37
5 30 44
5 31 59
5 32 51
5 33 53
5 34 39
5 35 53
5 36 57
5 37 45
5 38 37
6 1 48
6 2 51
6 3 38
6 4 38
6 5 48
6 6 0
6 7 55
6 8 39
6 9 38
6 10 37
6 11 53
6 12 51
6 13 53
6 14 37
6 15 53
6 16 39
6 17 58
6 18 50
6 19 54
6 20 46
6 21 56
6 22 45
6 23 51
6 24 40
6 25 58
6 26 60
6 27 47
6 28 37
6 29 55
6 30 57
6 31 40
6 32 41
6 33 59
6 34 51
6 35 44
6 36 35
6 37 42
6 38 59
7 1 41
7 2 49
7 3 53
7 4 48
7 5 39
7 6 39
7 7 0
7 8 60
7 9 43
7 10 37
7 11 36
7 12 45
7 13 44
7 14 54
7 15 55
7 16 39
7 17 37
7 18 36
7 19 41
7 20 46
7 21 44
7 22 50
7 23 58
7 24 37
7 25 51
7 26 40
7 27 60
7 28 38
7 29 36
7 30 36
7 31 46
7 32 47
7 33 37
7 34 59
7 35 53
7 36 37
7 37 41
7 38 54
8 1 42
8 2 57
8 3 44
8 4 42
8 5 48
8 6 59
8 7 38
8 8 0
8 9 49
8 10 38
8 11 53
8 12 40
8 13 56
8 14 50
8 15 56
8 16 48
8 17 41
8 18 38
8 19 40
8 20 58
8 21 48
8 22 55
8 23 40
8 24 55
8 25 45
8 26 36
8 27 57
8 28 35
8 29 53
8 30 57
8 31 59
8 32 55
8 33 53
8 34 37
8 35 45
8 36 59
8 37 47
8 38 57
9 1 42
9 2 38
9 3 57
9 4 52
9 5 41
9 6 41
9 7 46
9 8 50
9 9 0
9 10 36
9 11 45
9 12 36
9 13 50
9 14 35
9 15 51
9 16 47
9 17 54
9 18 50
9 19 55
9 20 40
9 21 53
9 22 48
9 23 60
9 24 53
9 25 55
9 26 50
9 27 39
9 28 48
9 29 48
9 30 36
9 31 47
9 32 45
9 33 55
9 34 41
9 35 48
9 36 45
9 37 53
9 38 60
10 1 39
10 2 48
10 3 49
10 4 37
10 5 48
10 6 57
10 7 39
10 8 50
10 9 47
10 10 0
10 11 54
10 12 53
10 13 47
10 14 57
10 15 37
10 16 36
10 17 46
10 18 35
10 19 50
10 20 45
10 21 36
10 22 57
10 23 59
10 24 42
10 25 35
10 26 43
10 27 39
10 28 50
10 29 55
10 30 52
10 31 51
10 32 35
10 33 42
10 34 60
10 35 35
10 36 55
10 37 43
10 38 60
11 1 36
11 2 41
11 3 44
11 4 45
11 5 50
11 6 55
11 7 57
11 8 39
11 9 55
11 10 45
11 11 0
11 12 46
11 13 43
11 14 57
11 15 54
11 16 41
11 17 57
11 18 49
11 19 58
11 20 55
11 21 36
11 22 57
11 23 55
11 24 51
11 25 54
11 26 60
11 27 41
11 28 58
11 29 55
11 30 44
11 31 57
11 32 37
11 33 36
11 34 35
11 35 35
11 36 51
11 37 40
11 38 48
12 1 54
12 2 48
12 3 39
12 4 47
12 5 38
12 6 60
12 7 45
12 8 52
12 9 45
12 10 56
12 11 49
12 12 0
12 13 35
12 14 48
12 15 37
12 16 38
12 17 58
12 18 40
12 19 38
12 20 46
12 21 53
12 22 56
12 23 60
12 24 54
12 25 54
12 26 60
12 27 57
12 28 57
12 29 49
12 30 41
12 31 57
12 32 52
12 33 57
12 34 52
12 35 36
12 36 40
12 37 43
12 38 42
13 1 42
13 2 48
13 3 35
13 4 56
13 5 59
13 6 53
13 7 55
13 8 55
13 9 54
13 10 60
13 11 53
13 12 37
13 13 0
13 14 48
13 15 57
13 16 37
13 17 46
13 18 55
13 19 51
13 20 46
13 21 55
13 22 44
13 23 36
13 24 59
13 25 35
13 26 42
13 27 35
13 28 39
13 29 51
13 30 37
13 31 50
13 32 44
13 33 45
13 34 51
13 35 50
13 36 49
13 37 60
13 38 35
14 1 46
14 2 50
14 3 55
14 4 51
14 5 38
14 6 37
14 7 42
14 8 37
14 9 53
14 10 48
14 11 54
14 12 38
14 13 60
14 14 0
14 15 47
14 16 36
14 17 59
14 18 59
14 19 59
14 20 60
14 21 48
14 22 45
14 23 44
14 24 51
14 25 56
14 26 53
14 27 54
14 28 44
14 29 47
14 30 40
14 31 44
14 32 47
14 33 46
14 34 43
14 35 46
14 36 43
14 37 57
14 38 50
15 1 56
15 2 42
15 3 37
15 4 51
15 5 37
15 6 57
15 7 59
15 8 56
15 9 49
15 10 42
15 11 36
15 12 50
15 13 55
15 14 43
15 15 0
15 16 49
15 17 51
15 18 53
15 19 47
15 20 35
15 21 56
15 22 55
15 23 35
15 24 51
15 25 35
15 26 48
15 27 55
15 28 50
15 29 59
15 30 48
15 31 52
15 32 58
15 33 45
15 34 58
15 35 57
15 36 36
15 37 60
15 38 50
16 1 48
16 2 41
16 3 60
16 4 42
16 5 42
16 6 57
16 7 46
16 8 37
16 9 43
16 10 50
16 11 46
16 12 58
16 13 40
16 14 45
16 15 43
16 16 0
16 17 48
16 18 50
16 19 55
16 20 42
16 21 43
16 22 39
16 23 41
16 24 43
16 25 38
16 26 47
16 27 43
16 28 35
16 29 44
16 30 40
16 31 53
16 32 51
16 33 52
16 34 56
16 35 56
16 36 49
16 37 51
16 38 38
17 1 49
17 2 44
17 3 39
17 4 52
17 5 51
17 6 49
17 7 55
17 8 44
17 9 52
17 10 53
17 11 40
17 12 46
17 13 50
17 14 53
17 15 38
17 16 48
17 17 0
17 18 42
17 19 43
17 20 58
17 21 45
17 22 60
17 23 56
17 24 55
17 25 56
17 26 49
17 27 57
17 28 45
17 29 44
17 30 43
17 31 49
17 32 59
17 33 39
17 34 38
17 35 35
17 36 52
17 37 42
17 38 44
18 1 55
18 2 58
18 3 36
18 4 36
18 5 40
18 6 57
18 7 44
18 8 58
18 9 46
18 10 54
18 11 50
18 12 54
18 13 47
18 14 46
18 15 55
18 16 46
18 17 37
18 18 0
18 19 43
18 20 49
18 21 35
18 22 55
18 23 48
18 24 42
18 25 51
18 26 40
18 27 48
18 28 38
18 29 52
18 30 40
18 31 55
18 32 54
18 33 42
18 34 47
18 35 37
18 36 41
18 37 41
18 38 54
19 1 51
19 2 36
19 3 39
19 4 40
19 5 47
19 6 49
19 7 44
19 8 39
19 9 51
19 10 46
19 11 47
19 12 35
19 13 47
19 14 35
19 15 51
19 16 54
19 17 36
19 18 55
19 19 0
19 20 37
19 21 50
19 22 51
19 23 60
19 24 55
19 25 52
19 26 45
19 27 54
19 28 58
19 29 57
19 30 39
19 31 38
19 32 40
19 33 40
19 34 58
19 35 53
19 36 56
19 37 58
19 38 47
20 1 59
20 2 50
20 3 46
20 4 38
20 5 45
20 6 60
20 7 46
20 8 59
20 9 48
20 10 35
20 11 49
20 12 53
20 13 49
20 14 51
20 15 38
20 16 45
20 17 48
20 18 35
20 19 39
20 20 0
20 21 46
20 22 56
20 23 50
20 24 35
20 25 50
20 26 51
20 27 41
20 28 37
20 29 59
20 30 55
20 31 37
20 32 59
20 33 49
20 34 51
20 35 50
20 36 35
20 37 36
20 38 42
21 1 55
21 2 39
21 3 59
21 4 51
21 5 52
21 6 45
21 7 43
21 8 40
21 9 56
21 10 38
21 11 44
21 12 42
21 13 54
21 14 36
21 15 51
21 16 53
21 17 42
21 18 43
21 19 51
21 20 54
21 21 0
21 22 38
21 23 44
21 24 40
21 25 37
21 26 36
21 27 51
21 28 46
21 29 56
21 30 49
21 31 50
21 32 54
21 33 44
21 34 54
21 35 58
21 36 41
21 37 54
21 38 39
22 1 56
22 2 42
22 3 39
22 4 47
22 5 40
22 6 47
22 7 41
22 8 45
22 9 58
22 10 46
22 11 51
22 12 43
22 13 59
22 14 54
22 15 38
22 16 53
22 17 60
22 18 42
22 19 37
22 20 46
22 21 49
22 22 0
22 23 53
22 24 47
22 25 53
22 26 44
22 27 56
22 28 54
22 29 50
22 30 51
22 31 46
22 32 47
22 33 53
22 34 50
22 35 48
22 36 43
22 37 47
22 38 39
23 1 60
23 2 45
23 3 49
23 4 36
23 5 46
23 6 51
23 7 44
23 8 41
23 9 41
23 10 53
23 11 49
23 12 39
23 13 55
23 14 36
23 15 50
23 16 36
23 17 35
23 18 48
23 19 50
23 20 50
23 21 42
23 22 39
23 23 0
23 24 50
23 25 36
23 26 60
23 27 49
23 28 51
23 29 39
23 30 42
23 31 47
23 32 35
23 33 53
23 34 51
23 35 49
23 36 37
23 37 36
23 38 46
24 1 35
24 2 58
24 3 52
24 4 36
24 5 55
24 6 42
24 7 45
24 8 48
24 9 50
24 10 48
24 11 36
24 12 59
24 13 56
24 14 39
24 15 43
24 16 53
24 17 56
24 18 50
24 19 45
24 20 40
24 21 44
24 22 38
24 23 40
24 24 0
24 25 41
24 26 45
24 27 41
24 28 41
24 29 46
24 30 37
24 31 53
24 32 60
24 33 55
24 34 44
24 35 44
24 36 39
24 37 59
24 38 40
25 1 56
25 2 55
25 3 58
25 4 46
25 5 48
25 6 44
25 7 59
25 8 37
25 9 57
25 10 53
25 11 55
25 12 55
25 13 57
25 14 41
25 15 39
25 16 49
25 17 45
25 18 40
25 19 59
25 20 56
25 21 42
25 22 36
25 23 56
25 24 58
25 25 0
25 26 43
25 27 60
25 28 42
25 29 38
25 30 54
25 31 47
25 32 39
25 33 56
25 34 35
25 35 53
25 36 35
25 37 53
25 38 57
26 1 48
26 2 36
26 3 39
26 4 57
26 5 48
26 6 51
26 7 56
26 8 59
26 9 55
26 10 42
26 11 58
26 12 60
26 13 57
26 14 58
26 15 46
26 16 55
26 17 55
26 18 55
26 19 58
26 20 49
26 21 39
26 22 45
26 23 59
26 24 50
26 25 58
26 26 0
26 27 54
26 28 45
26 29 48
26 30 58
26 31 48
26 32 38
26 33 55
26 34 54
26 35 52
26 36 38
26 37 43
26 38 44
27 1 56
27 2 41
27 3 37
27 4 43
27 5 43
27 6 43
27 7 35
27 8 58
27 9 36
27 10 51
27 11 43
27 12 44
27 13 40
27 14 39
27 15 55
27 16 56
27 17 49
27 18 39
27 19 41
27 20 57
27 21 38
27 22 56
27 23 53
27 24 42
27 25 50
27 26 39
27 27 0
27 28 37
27 29 54
27 30 59
27 31 45
27 32 48
27 33 58
27 34 59
27 35 52
27 36 51
27 37 51
27 38 41
28 1 41
28 2 46
28 3 44
28 4 40
28 5 46
28 6 55
28 7 57
28 8 36
28 9 47
28 10 39
28 11 40
28 12 50
28 13 50
28 14 56
28 15 58
28 16 37
28 17 56
28 18 55
28 19 54
28 20 36
28 21 57
28 22 53
28 23 54
28 24 46
28 25 46
28 26 48
28 27 52
28 28 0
28 29 43
28 30 57
28 31 45
28 32 55
28 33 44
28 34 55
28 35 57
28 36 35
28 37 41
28 38 39
29 1 38
29 2 45
29 3 39
29 4 52
29 5 53
29 6 35
29 7 45
29 8 38
29 9 57
29 10 47
29 11 37
29 12 42
29 13 43
29 14 49
29 15 56
29 16 38
29 17 49
29 18 44
29 19 45
29 20 42
29 21 48
29 22 40
29 23 54
29 24 57
29 25 56
29 26 43
29 27 42
29 28 44
29 29 0
29 30 46
29 31 44
29 32 51
29 33 50
29 34 40
29 35 49
29 36 39
29 37 48
29 38 41
30 1 49
30 2 53
30 3 44
30 4 50
30 5 47
30 6 46
30 7 54
30 8 37
30 9 40
30 10 38
30 11 39
30 12 40
30 13 59
30 14 44
30 15 60
30 16 42
30 17 52
30 18 58
30 19 53
30 20 41
30 21 36
30 22 52
30 23 57
30 24 40
30 25 44
30 26 55
30 27 56
30 28 50
30 29 50
30 30 0
30 31 56
30 32 38
30 33 54
30 34 53
30 35 59
30 36 55
30 37 50
30 38 51
31 1 60
31 2 39
31 3 51
31 4 44
31 5 51
31 6 35
31 7 43
31 8 56
31 9 39
31 10 54
31 11 52
31 12 44
31 13 40
31 14 49
31 15 52
31 16 46
31 17 56
31 18 50
31 19 43
31 20 50
31 21 40
31 22 48
31 23 38
31 24 56
31 25 58
31 26 36
31 27 35
31 28 50
31 29 40
31 30 59
31 31 0
31 32 36
31 33 36
31 34 38
31 35 50
31 36 41
31 37 50
31 38 50
32 1 37
32 2 54
32 3 45
32 4 47
32 5 49
32 6 48
32 7 40
32 8 57
32 9 51
32 10 45
32 11 45
32 12 51
32 13 41
32 14 52
32 15 50
32 16 45
32 17 56
32 18 39
32 19 41
32 20 46
32 21 44
32 22 42
32 23 50
32 24 49
32 25 42
32 26 41
32 27 44
32 28 39
32 29 49
32 30 42
32 31 51
32 32 0
32 33 51
32 34 57
32 35 36
32 36 53
32 37 42
32 38 54
33 1 60
33 2 54
33 3 59
33 4 47
33 5 59
33 6 53
33 7 59
33 8 36
33 9 42
33 10 39
33 11 53
33 12 37
33 13 51
33 14 54
33 15 55
33 16 42
33 17 53
33 18 37
33 19 48
33 20 41
33 21 56
33 22 49
33 23 51
33 24 40
33 25 51
33 26 54
33 27 57
33 28 44
33 29 46
33 30 49
33 31 40
33 32 39
33 33 0
33 34 53
33 35 55
33 36 38
33 37 43
33 38 40
34 1 60
34 2 57
34 3 40
34 4 37
34 5 58
34 6 47
34 7 51
34 8 46
34 9 57
34 10 53
34 11 36
34 12 52
34 13 42
34 14 38
34 15 58
34 16 41
34 17 36
34 18 40
34 19 35
34 20 50
34 21 59
34 22 47
34 23 35
34 24 46
34 25 36
34 26 56
34 27 53
34 28 44
34 29 44
34 30 50
34 31 40
34 32 55
34 33 40
34 34 0
34 35 60
34 36 56
34 37 44
34 38 38
35 1 42
35 2 50
35 3 45
35 4 50
35 5 45
35 6 53
35 7 48
35 8 44
35 9 60
35 10 51
35 11 56
35 12 53
35 13 58
35 14 45
35 15 35
35 16 46
35 17 55
35 18 47
35 19 43
35 20 43
35 21 39
35 22 41
35 23 56
35 24 59
35 25 42
35 26 53
35 27 59
35 28 41
35 29 40
35 30 42
35 31 57
35 32 54
35 33 50
35 34 56
35 35 0
35 36 37
35 37 43
35 38 48
36 1 45
36 2 37
36 3 46
36 4 52
36 5 47
36 6 42
36 7 54
36 8 58
36 9 40
36 10 44
36 11 38
36 12 57
36 13 45
36 14 53
36 15 45
36 16 45
36 17 59
36 18 39
36 19 57
36 20 52
36 21 46
36 22 38
36 23 53
36 24 43
36 25 58
36 26 39
36 27 40
36 28 39
36 29 60
36 30 47
36 31 45
36 32 44
36 33 44
36 34 51
36 35 55
36 36 0
36 37 55
36 38 54
37 1 50
37 2 58
37 3 41
37 4 59
37 5 52
37 6 50
37 7 39
37 8 58
37 9 37
37 10 38
37 11 35
37 12 36
37 13 58
37 14 58
37 15 39
37 16 50
37 17 38
37 18 36
37 19 54
37 20 50
37 21 44
37 22 56
37 23 45
37 24 39
37 25 54
37 26 43
37 27 50
37 28 45
37 29 55
37 30 47
37 31 38
37 32 55
37 33 50
37 34 50
37 35 56
37 36 60
37 37 0
37 38 50
38 1 37
38 2 54
38 3 55
38 4 43
38 5 53
38 6 45
38 7 48
38 8 52
38 9 50
38 10 36
38 11 56
38 12 55
38 13 36
38 14 39
38 15 42
38 16 50
38 17 59
38 18 38
38 19 50
38 20 35
38 21 35
38 22 59
38 23 51
38 24 40
38 25 36
38 26 44
38 27 38
38 28 42
38 29 41
38 30 45
38 31 60
38 32 50
38 33 57
38 34 46
38 35 42
38 36 49
38 37 37
38 38 0
;
param Rinit :=
1 1 0
1 2 0
1 3 0
1 4 0
1 5 0
1 6 0
1 7 0
1 8 0
38 1 0
38 2 0
38 3 0
38 4 0
38 5 0
38 6 0
38 7 0
38 8 0
;
param f :=
1 1
2 2
3 3
4 4
;